solution status: gap limit reached
objective value:                          39902.03473
y#8                                                 1 	(obj:5700)
y#9                                                 1 	(obj:5700)
y#10                                                1 	(obj:5700)
y#12                                                1 	(obj:5700)
y#41                                                1 	(obj:5700)
y#43                                                1 	(obj:5700)
y#55                                                1 	(obj:5700)
x#1#55                                              1 	(obj:0.01547)
x#2#10                                              1 	(obj:0.06018)
x#3#41                                              1 	(obj:0.00935)
x#4#9                                               1 	(obj:0.02635)
x#5#12                                              1 	(obj:0.0255)
x#6#10                                              1 	(obj:0.02278)
x#7#12                                              1 	(obj:0.02686)
x#8#41                                              1 	(obj:0.02839)
x#9#41                                              1 	(obj:0.01003)
x#10#12                                             1 	(obj:0.03927)
x#11#41                                             1 	(obj:0.0153)
x#12#10                                             1 	(obj:0.06681)
x#13#12                                             1 	(obj:0.02023)
x#14#41                                             1 	(obj:0.01003)
x#15#43                                             1 	(obj:0.02465)
x#16#41                                             1 	(obj:0.01377)
x#17#55                                             1 	(obj:0.0306)
x#18#9                                              1 	(obj:0.02312)
x#19#43                                             1 	(obj:0.01513)
x#20#43                                             1 	(obj:0.00425)
x#21#12                                             1 	(obj:0.01207)
x#22#10                                             1 	(obj:0.0306)
x#23#9                                              1 	(obj:0.02516)
x#24#9                                              1 	(obj:0.03366)
x#25#41                                             1 	(obj:0.03774)
x#26#8                                              1 	(obj:0.02431)
x#27#55                                             1 	(obj:0.01581)
x#28#41                                             1 	(obj:0.02414)
x#29#12                                             1 	(obj:0.01071)
x#30#9                                              1 	(obj:0.00595)
x#31#12                                             1 	(obj:0.0578)
x#32#10                                             1 	(obj:0.03298)
x#33#10                                             1 	(obj:0.01037)
x#34#43                                             1 	(obj:0.00833)
x#35#10                                             1 	(obj:0.00646)
x#36#55                                             1 	(obj:0.01513)
x#37#43                                             1 	(obj:0.01037)
x#38#55                                             1 	(obj:0.0204)
x#39#55                                             1 	(obj:0.0204)
x#40#43                                             1 	(obj:0.03689)
x#41#8                                              1 	(obj:0.03723)
x#42#9                                              1 	(obj:0.03774)
x#43#55                                             1 	(obj:0.02516)
x#44#55                                             1 	(obj:0.03451)
x#45#10                                             1 	(obj:0.00918)
x#46#12                                             1 	(obj:0.04284)
x#47#12                                             1 	(obj:0.02142)
x#48#8                                              1 	(obj:0.01428)
x#49#8                                              1 	(obj:0.03621)
x#50#9                                              1 	(obj:0.04879)
x#51#9                                              1 	(obj:0.01428)
x#52#9                                              1 	(obj:0.03417)
x#53#55                                             1 	(obj:0.02465)
x#54#41                                             1 	(obj:0.0238)
x#55#55                                             1 	(obj:0.02703)
x#56#8                                              1 	(obj:0.00901)
x#57#8                                              1 	(obj:0.0374)
x#58#10                                             1 	(obj:0.01207)
x#59#8                                              1 	(obj:0.01326)
x#60#9                                              1 	(obj:0.02193)
x#61#55                                             1 	(obj:0.04114)
x#62#12                                             1 	(obj:0.02074)
x#63#9                                              1 	(obj:0.02363)
x#64#8                                              1 	(obj:0.01326)
x#65#43                                             1 	(obj:0.05474)
x#66#8                                              1 	(obj:0.03417)
x#67#41                                             1 	(obj:0.03434)
x#68#10                                             1 	(obj:0.02006)
x#69#43                                             1 	(obj:0.04828)
x#70#43                                             1 	(obj:0.03213)
x#71#10                                             1 	(obj:0.01921)
x#72#9                                              1 	(obj:0.01513)
x#73#8                                              1 	(obj:0.02839)
x#74#12                                             1 	(obj:0.01802)
x#75#43                                             1 	(obj:0.02805)
x#76#43                                             1 	(obj:0.01241)
x#77#43                                             1 	(obj:0.02703)
x#78#55                                             1 	(obj:0.0561)
x#79#41                                             1 	(obj:0.0119)
x#80#8                                              1 	(obj:0.04369)
